tasks = 15;
machines = 2;
names = ["Turn top-button","Move to take ring","Take ring","Move ring to top-button","Mount ring on top-button","Move to fixate top-button","Fixate top-button","Move top-button to fixture","Put top-button in fixture","Move to change tool","Change to base-grabber tool","Move to take top-button","Take top-button","Move to take base","Take base"];
d =    [4,2,2,1,52,3,3,3,1,6,12,1,1,2,1];
dep = [|0,0,0,0,1,0,0,0,0,0,0,0,0,0,0|
	0,0,1,0,0,0,0,0,0,0,0,0,0,0,0|
	0,0,0,1,0,0,0,0,0,0,0,0,0,0,0|
	0,0,0,0,1,0,0,0,0,0,0,0,0,0,0|
	0,0,0,0,0,1,0,0,0,0,0,0,0,0,0|
	0,0,0,0,0,0,1,0,0,0,0,0,0,0,0|
	0,0,0,0,0,0,0,1,0,0,0,0,0,0,0|
	0,0,0,0,0,0,0,0,1,0,0,0,0,0,0|
	0,0,0,0,0,0,0,0,0,0,0,1,0,0,0|
	0,0,0,0,0,0,0,0,0,0,1,0,0,0,0|
	0,0,0,0,0,0,0,0,0,0,0,0,0,1,0|
	0,0,0,0,0,0,0,0,0,0,0,0,1,0,0|
	0,0,0,0,0,0,0,0,0,0,0,0,0,0,0|
	0,0,0,0,0,0,0,0,0,0,0,0,0,0,1|
	0,0,0,0,0,0,0,0,0,0,0,0,0,0,0|];

max_same_machines = 6;
nbr_of_same_machines = 5;
same_machine = [|1,6,7,8,9,0|
	      	 2,3,4,5,0,0|
	      	 10,11,0,0,0,0|
	      	 12,13,0,0,0,0|
	      	 14,15,11,0,0,0|];

max_concurrent_tasks = 0;
nbr_concurrent_groups = 0;
concurrent_tasks = [||];

max_occupation = 5;
nbr_occupations = 5;
occupied = [|1,6,7,8,9|
	     2,3,4,5,0|
	     10,11,0,0,0|
	     12,13,0,0,0|
	     14,15,0,0,0|];
